
Gurobi 9.5.2 (mac64[arm]) logging started Sun Apr 30 16:41:04 2023

Set parameter LogFile to value "Java/output/special_mip/scenario_seed_0_nJob_50_machineCount_2/mip_increment_1/log.txt"
Gurobi Optimizer version 9.5.2 build v9.5.2rc0 (mac64[arm])
Thread count: 8 physical cores, 8 logical processors, using up to 8 threads
Optimize a model with 3682 rows, 85800 columns and 1075685 nonzeros
Model fingerprint: 0x83342abb
Variable types: 0 continuous, 85800 integer (85800 binary)
Coefficient statistics:
  Matrix range     [1e+00, 3e+02]
  Objective range  [1e+00, 5e+06]
  Bounds range     [1e+00, 1e+00]
  RHS range        [1e+00, 1e+00]
Presolve removed 91 rows and 7226 columns
Presolve time: 1.12s
Presolved: 3591 rows, 78574 columns, 989175 nonzeros
Variable types: 0 continuous, 78574 integer (78574 binary)

Root simplex log...

Iteration    Objective       Primal Inf.    Dual Inf.      Time
   18159    1.8026692e+04   3.485698e+05   0.000000e+00      5s
   36710    1.9643160e+04   2.624907e+04   0.000000e+00     10s
   50733    1.9967488e+04   1.073683e+04   0.000000e+00     15s
   58383    2.0020496e+04   0.000000e+00   0.000000e+00     19s

Root relaxation: objective 2.002050e+04, 58383 iterations, 17.59 seconds (45.33 work units)

    Nodes    |    Current Node    |     Objective Bounds      |     Work
 Expl Unexpl |  Obj  Depth IntInf | Incumbent    BestBd   Gap | It/Node Time

     0     0 20020.4957    0  726          - 20020.4957      -     -   19s
     0     0 20069.2584    0  876          - 20069.2584      -     -   26s
     0     0 20090.4506    0  937          - 20090.4506      -     -   34s
     0     0 20091.0314    0  942          - 20091.0314      -     -   34s
     0     0 20091.0609    0  938          - 20091.0609      -     -   35s
     0     0 20105.4892    0 1056          - 20105.4892      -     -   41s
     0     0 20109.4303    0 1089          - 20109.4303      -     -   44s
     0     0 20109.5731    0 1105          - 20109.5731      -     -   45s
     0     0 20109.6637    0 1081          - 20109.6637      -     -   46s
     0     0 20109.6843    0 1077          - 20109.6843      -     -   46s
     0     0 20109.6859    0 1074          - 20109.6859      -     -   46s
     0     0 20120.0765    0 1060          - 20120.0765      -     -   53s
     0     0 20123.3757    0 1110          - 20123.3757      -     -   57s
     0     0 20123.9838    0 1110          - 20123.9838      -     -   59s
     0     0 20124.0524    0 1112          - 20124.0524      -     -   59s
     0     0 20124.0603    0 1113          - 20124.0603      -     -   60s
     0     0 20132.9688    0 1172          - 20132.9688      -     -   66s
     0     0 20135.6321    0 1212          - 20135.6321      -     -   71s
     0     0 20135.7755    0 1225          - 20135.7755      -     -   72s
     0     0 20135.7833    0 1240          - 20135.7833      -     -   72s
     0     0 20146.7139    0 1195          - 20146.7139      -     -   81s
     0     0 20151.0503    0 1206          - 20151.0503      -     -   86s
     0     0 20151.5484    0 1239          - 20151.5484      -     -   88s
     0     0 20151.5902    0 1237          - 20151.5902      -     -   88s
     0     0 20172.4124    0 1277          - 20172.4124      -     -   98s
     0     0 20174.0647    0 1325          - 20174.0647      -     -  102s
     0     0 20174.3654    0 1352          - 20174.3654      -     -  104s
     0     0 20174.4526    0 1353          - 20174.4526      -     -  105s
     0     0 20174.4908    0 1371          - 20174.4908      -     -  105s
     0     0 20186.3576    0 1335          - 20186.3576      -     -  115s
     0     0 20188.3698    0 1318          - 20188.3698      -     -  120s
     0     0 20188.6456    0 1342          - 20188.6456      -     -  121s
     0     0 20188.6985    0 1321          - 20188.6985      -     -  122s
     0     0 20193.6457    0 1391          - 20193.6457      -     -  129s
     0     0 20194.9190    0 1377          - 20194.9190      -     -  133s
     0     0 20195.2402    0 1407          - 20195.2402      -     -  135s
     0     0 20195.2554    0 1397          - 20195.2554      -     -  135s
     0     0 20200.0497    0 1381          - 20200.0497      -     -  143s
     0     0 20201.2145    0 1429          - 20201.2145      -     -  146s
     0     0 20201.3953    0 1437          - 20201.3953      -     -  147s
     0     0 20201.4248    0 1444          - 20201.4248      -     -  148s
     0     0 20204.6853    0 1449          - 20204.6853      -     -  153s
H    0     0                    1.712504e+07 20204.6853   100%     -  153s
H    0     0                    1.002203e+07 20204.6853   100%     -  153s
     0     0 20205.2891    0 1450 1.0022e+07 20205.2891   100%     -  156s
     0     0 20205.4413    0 1486 1.0022e+07 20205.4413   100%     -  157s
     0     0 20205.4614    0 1483 1.0022e+07 20205.4614   100%     -  157s
     0     0 20207.2027    0 1493 1.0022e+07 20207.2027   100%     -  162s
H    0     0                    7517136.0000 20207.2027   100%     -  162s
H    0     0                    3844809.0000 20207.2027  99.5%     -  264s
     0     0 20207.4229    0 1520 3844809.00 20207.4229  99.5%     -  266s
     0     0 20207.4531    0 1503 3844809.00 20207.4531  99.5%     -  266s
     0     0 20210.5720    0 1500 3844809.00 20210.5720  99.5%     -  272s
H    0     0                    3770601.0000 20210.5720  99.5%     -  272s
H    0     0                    3770407.0000 20210.5720  99.5%     -  273s
H    0     0                    3356012.0000 20210.5720  99.4%     -  273s
     0     0 20210.8065    0 1515 3356012.00 20210.8065  99.4%     -  274s
     0     0 20210.8478    0 1539 3356012.00 20210.8478  99.4%     -  275s
     0     0 20212.6329    0 1524 3356012.00 20212.6329  99.4%     -  280s
H    0     0                    3231040.0000 20212.6329  99.4%     -  280s
     0     0 20213.0706    0 1541 3231040.00 20213.0706  99.4%     -  283s
     0     0 20213.1034    0 1536 3231040.00 20213.1034  99.4%     -  283s
     0     0 20214.6304    0 1505 3231040.00 20214.6304  99.4%     -  288s
H    0     0                    2845206.0000 20214.6304  99.3%     -  288s
     0     0 20215.1136    0 1526 2845206.00 20215.1136  99.3%     -  290s
     0     0 20215.2602    0 1547 2845206.00 20215.2602  99.3%     -  291s
     0     0 20215.3590    0 1552 2845206.00 20215.3590  99.3%     -  293s
     0     0 20216.3487    0 1508 2845206.00 20216.3487  99.3%     -  297s
H    0     0                    2845187.0000 20216.3487  99.3%     -  297s
     0     0 20216.4631    0 1515 2845187.00 20216.4631  99.3%     -  298s
     0     0 20216.4919    0 1523 2845187.00 20216.4919  99.3%     -  299s
     0     0 20217.9559    0 1574 2845187.00 20217.9559  99.3%     -  303s
H    0     0                    2387108.0000 20217.9559  99.2%     -  304s
     0     0 20218.3496    0 1592 2387108.00 20218.3496  99.2%     -  305s
     0     0 20218.4967    0 1574 2387108.00 20218.4967  99.2%     -  307s
     0     0 20218.5152    0 1578 2387108.00 20218.5152  99.2%     -  307s
     0     0 20219.7643    0 1519 2387108.00 20219.7643  99.2%     -  311s
H    0     0                    2387090.0000 20219.7643  99.2%     -  311s
     0     0 20220.0426    0 1584 2387090.00 20220.0426  99.2%     -  313s
     0     0 20220.2241    0 1577 2387090.00 20220.2241  99.2%     -  314s
     0     0 20220.2344    0 1599 2387090.00 20220.2344  99.2%     -  314s
     0     0 20221.9612    0 1559 2387090.00 20221.9612  99.2%     -  319s
H    0     0                    2369794.0000 20221.9612  99.1%     -  320s
     0     0 20222.1606    0 1561 2369794.00 20222.1606  99.1%     -  321s
     0     0 20222.1940    0 1573 2369794.00 20222.1940  99.1%     -  322s
     0     0 20222.8345    0 1567 2369794.00 20222.8345  99.1%     -  325s
     0     0 20222.8345    0 1550 2369794.00 20222.8345  99.1%     -  326s
     0     2 20222.8345    0 1544 2369794.00 20222.8345  99.1%     -  376s
     1     4 20225.4451    1 1502 2369794.00 20222.8345  99.1%  5656  381s
     3     8 20232.9027    2 1465 2369794.00 20222.8463  99.1%  5688  398s
     7    16 20234.8692    3 1486 2369794.00 20222.9231  99.1%  5935  417s
    15    24 20268.1513    4 1467 2369794.00 20222.9474  99.1%  8577  452s
    23    32 20246.2693    4 1472 2369794.00 20222.9514  99.1% 11740  506s
H   31    40                    1849036.0000 20224.0368  98.9% 12938  600s
H   32    40                    1837163.0000 20224.0368  98.9% 12924  600s

Cutting planes:
  Cover: 9
  Clique: 474
  MIR: 151
  StrongCG: 50
  GUB cover: 386
  Mod-K: 1
  RLT: 3

Explored 39 nodes (756336 simplex iterations) in 600.07 seconds (1882.04 work units)
Thread count was 8 (of 8 available processors)

Solution count 10: 1.83716e+06 1.84904e+06 2.36979e+06 ... 3.77041e+06

Time limit reached
Best objective 1.837163000000e+06, best bound 2.022403697471e+04, gap 98.8992%
